Route #1: 62 22 64 42 43 41 56 23 63 1 73 33 6
Route #2: 30 48 47 21 61 28 74 2 68 75
Route #3: 45 29 5 36 69 71 60 70 20 37 15 57 13 54 19 8
Route #4: 4 27 52 34 46 67
Route #5: 7 53 11 38 65 66 59 14 35
Route #6: 12 72 39 9 32 44 3 40 17
Route #7: 51 16 49 24 18 50 25 55 31 10 58 26
Cost 685
Time 0.105114
